
  22   10
  10   10   10   10   10   10   10   10   10   10

   0   0   0   0   0   0   0   0   0   0   0   2 2 5 
   8   0   0  10   0   0   0   0   0   0   0   1 3 
   1   0   0   0   0  10   0   0   0   0   0   2 14 4 
   7   0  10   0   0   0   0   0   0   0   0   1 6 
   8   0   0   0   0   0   0   0   0   0  10   1 6 
   3   0   0   0  10   0   0   0   0   0   0   1 7 
   8   0   0   0  10   0   0   0   0   0   0   2 13 8 
   7   0   0  10   0   0   0   0   0   0   0   2 21 9 
   4   0   0  10   0   0   0   0   0   0   0   1 10 
   2   0   0  10   0   0   0   0   0   0   0   2 20 11 
   9   0   0   0   0   0   0   0   0   0  10   1 12 
   9   0  10   0   0   0   0   0   0   0   0   2 18 15 
   1   0   0   0   0   0   0   0   0   0  10   2 21 15 
   7   0   0   0   0   0  10   0   0   0   0   2 20 16 
   1   0   0   0   0   0   0   0   0   0  10   1 16 
   8   0   0   0   0   0   0   0   0   0  10   1 17 
   5   0   0   0   0   0   0   0   0  10   0   1 19 
   7   0   0   0   0   0   0   0  10   0   0   1 19 
   8   0   0   0   0   0   0  10   0   0   0   1 22
   4   0   0   0   0  10   0   0   0   0   0   1 22
   7   0   0   0   0  10   0   0   0   0   0   1 22
   0   0   0   0   0   0   0   0   0   0   0   0 
